sat
(model
  (define-fun |f$unknown:2|
    ( (v_0 Int) (v_1 Int) ) Bool
    (or (and (>= (* (- 1) v_1) (- 1)) (>= v_1 (- 1)) (= (+ v_0 (* (- 2) v_1) 1) 0)) (and (>= v_0 1) (or (>= (* (- 1) v_1) 2) (>= v_1 2) (not (= (+ v_0 (* (- 2) v_1) 1) 0)))))
  )
)
